11
0 60 53 15 83 37 64 29 90 50 9 
80 0 37 87 85 34 80 27 66 29 44 
57 75 0 96 97 42 41 25 5 30 5 
46 52 18 0 67 77 65 41 97 93 64 
89 93 79 30 0 20 34 56 66 84 38 
33 29 48 35 45 0 5 76 23 10 53 
51 58 11 76 30 82 0 4 51 44 35 
18 80 16 10 17 20 95 0 62 27 19 
39 73 62 95 50 64 49 42 0 83 82 
55 64 30 7 57 64 30 28 69 0 49 
44 89 2 45 1 9 42 17 40 77 0 
